sat
(:arith-branch          6
 :arith-cube-calls      1
 :arith-dio-calls       1
 :arith-lower           22
 :arith-make-feasible   10
 :arith-max-columns     57
 :arith-max-rows        33
 :arith-patches         7
 :arith-patches-success 1
 :arith-upper           14
 :decisions             6
 :final-checks          7
 :max-memory            19.30
 :memory                18.65
 :mk-bool-var           36
 :num-allocs            266937
 :num-checks            1
 :rlimit-count          5534
 :time                  0.03
 :total-time            0.08)
